NAME: 560.vrp-C113-R5
TYPE: SoftCluVRP
DIMENSION:  561 
VEHICLES:  39 
GVRP_SETS:  113 
CAPACITY:  1200 
EDGE_WEIGHT_TYPE: EUC_2D
NODE_COORD_SECTION 
1 0.000000 0.000000
2 30.000000 0.000000
3 29.630699 4.693000
4 28.531700 9.270500
5 26.730200 13.619700
6 24.270500 17.633600
7 21.213200 21.213200
8 17.633600 24.270500
9 13.619700 26.730200
10 9.270500 28.531700
11 4.693000 29.630699
12 0.000000 30.000000
13 -4.693000 29.630699
14 -9.270500 28.531700
15 -13.619700 26.730200
16 -17.633600 24.270500
17 -21.213200 21.213200
18 -24.270500 17.633600
19 -26.730200 13.619700
20 -28.531700 9.270500
21 -29.630699 4.693000
22 -30.000000 0.000000
23 -29.630699 -4.693000
24 -28.531700 -9.270500
25 -26.730200 -13.619700
26 -24.270500 -17.633600
27 -21.213200 -21.213200
28 -17.633600 -24.270500
29 -13.619700 -26.730200
30 -9.270500 -28.531700
31 -4.693000 -29.630699
32 -0.000000 -30.000000
33 4.693000 -29.630699
34 9.270500 -28.531700
35 13.619700 -26.730200
36 17.633600 -24.270500
37 21.213200 -21.213200
38 24.270500 -17.633600
39 26.730200 -13.619700
40 28.531700 -9.270500
41 29.630699 -4.693000
42 60.000000 0.000000
43 59.261299 9.386100
44 57.063400 18.541000
45 53.460400 27.239401
46 48.541000 35.267101
47 42.426399 42.426399
48 35.267101 48.541000
49 27.239401 53.460400
50 18.541000 57.063400
51 9.386100 59.261299
52 0.000000 60.000000
53 -9.386100 59.261299
54 -18.541000 57.063400
55 -27.239401 53.460400
56 -35.267101 48.541000
57 -42.426399 42.426399
58 -48.541000 35.267101
59 -53.460400 27.239401
60 -57.063400 18.541000
61 -59.261299 9.386100
62 -60.000000 0.000000
63 -59.261299 -9.386100
64 -57.063400 -18.541000
65 -53.460400 -27.239401
66 -48.541000 -35.267101
67 -42.426399 -42.426399
68 -35.267101 -48.541000
69 -27.239401 -53.460400
70 -18.541000 -57.063400
71 -9.386100 -59.261299
72 -0.000000 -60.000000
73 9.386100 -59.261299
74 18.541000 -57.063400
75 27.239401 -53.460400
76 35.267101 -48.541000
77 42.426399 -42.426399
78 48.541000 -35.267101
79 53.460400 -27.239401
80 57.063400 -18.541000
81 59.261299 -9.386100
82 90.000000 0.000000
83 88.891998 14.079100
84 85.595100 27.811501
85 80.190598 40.859100
86 72.811501 52.900700
87 63.639599 63.639599
88 52.900700 72.811501
89 40.859100 80.190598
90 27.811501 85.595100
91 14.079100 88.891998
92 0.000000 90.000000
93 -14.079100 88.891998
94 -27.811501 85.595100
95 -40.859100 80.190598
96 -52.900700 72.811501
97 -63.639599 63.639599
98 -72.811501 52.900700
99 -80.190598 40.859100
100 -85.595100 27.811501
101 -88.891998 14.079100
102 -90.000000 0.000000
103 -88.891998 -14.079100
104 -85.595100 -27.811501
105 -80.190598 -40.859100
106 -72.811501 -52.900700
107 -63.639599 -63.639599
108 -52.900700 -72.811501
109 -40.859100 -80.190598
110 -27.811501 -85.595100
111 -14.079100 -88.891998
112 -0.000000 -90.000000
113 14.079100 -88.891998
114 27.811501 -85.595100
115 40.859100 -80.190598
116 52.900700 -72.811501
117 63.639599 -63.639599
118 72.811501 -52.900700
119 80.190598 -40.859100
120 85.595100 -27.811501
121 88.891998 -14.079100
122 120.000000 0.000000
123 118.522598 18.772100
124 114.126801 37.082001
125 106.920799 54.478901
126 97.082001 70.534203
127 84.852798 84.852798
128 70.534203 97.082001
129 54.478901 106.920799
130 37.082001 114.126801
131 18.772100 118.522598
132 0.000000 120.000000
133 -18.772100 118.522598
134 -37.082001 114.126801
135 -54.478901 106.920799
136 -70.534203 97.082001
137 -84.852798 84.852798
138 -97.082001 70.534203
139 -106.920799 54.478901
140 -114.126801 37.082001
141 -118.522598 18.772100
142 -120.000000 0.000000
143 -118.522598 -18.772100
144 -114.126801 -37.082001
145 -106.920799 -54.478901
146 -97.082001 -70.534203
147 -84.852798 -84.852798
148 -70.534203 -97.082001
149 -54.478901 -106.920799
150 -37.082001 -114.126801
151 -18.772100 -118.522598
152 -0.000000 -120.000000
153 18.772100 -118.522598
154 37.082001 -114.126801
155 54.478901 -106.920799
156 70.534203 -97.082001
157 84.852798 -84.852798
158 97.082001 -70.534203
159 106.920799 -54.478901
160 114.126801 -37.082001
161 118.522598 -18.772100
162 150.000000 0.000000
163 148.153305 23.465200
164 142.658493 46.352501
165 133.651001 68.098602
166 121.352501 88.167801
167 106.066002 106.066002
168 88.167801 121.352501
169 68.098602 133.651001
170 46.352501 142.658493
171 23.465200 148.153305
172 0.000000 150.000000
173 -23.465200 148.153305
174 -46.352501 142.658493
175 -68.098602 133.651001
176 -88.167801 121.352501
177 -106.066002 106.066002
178 -121.352501 88.167801
179 -133.651001 68.098602
180 -142.658493 46.352501
181 -148.153305 23.465200
182 -150.000000 0.000000
183 -148.153305 -23.465200
184 -142.658493 -46.352501
185 -133.651001 -68.098602
186 -121.352501 -88.167801
187 -106.066002 -106.066002
188 -88.167801 -121.352501
189 -68.098602 -133.651001
190 -46.352501 -142.658493
191 -23.465200 -148.153305
192 -0.000000 -150.000000
193 23.465200 -148.153305
194 46.352501 -142.658493
195 68.098602 -133.651001
196 88.167801 -121.352501
197 106.066002 -106.066002
198 121.352501 -88.167801
199 133.651001 -68.098602
200 142.658493 -46.352501
201 148.153305 -23.465200
202 180.000000 0.000000
203 177.783905 28.158199
204 171.190201 55.623100
205 160.381195 81.718300
206 145.623093 105.801300
207 127.279198 127.279198
208 105.801300 145.623093
209 81.718300 160.381195
210 55.623100 171.190201
211 28.158199 177.783905
212 0.000000 180.000000
213 -28.158199 177.783905
214 -55.623100 171.190201
215 -81.718300 160.381195
216 -105.801300 145.623093
217 -127.279198 127.279198
218 -145.623093 105.801300
219 -160.381195 81.718300
220 -171.190201 55.623100
221 -177.783905 28.158199
222 -180.000000 0.000000
223 -177.783905 -28.158199
224 -171.190201 -55.623100
225 -160.381195 -81.718300
226 -145.623093 -105.801300
227 -127.279198 -127.279198
228 -105.801300 -145.623093
229 -81.718300 -160.381195
230 -55.623100 -171.190201
231 -28.158199 -177.783905
232 -0.000000 -180.000000
233 28.158199 -177.783905
234 55.623100 -171.190201
235 81.718300 -160.381195
236 105.801300 -145.623093
237 127.279198 -127.279198
238 145.623093 -105.801300
239 160.381195 -81.718300
240 171.190201 -55.623100
241 177.783905 -28.158199
242 210.000000 0.000000
243 207.414597 32.851200
244 199.721893 64.893600
245 187.111404 95.337997
246 169.893600 123.434898
247 148.492401 148.492401
248 123.434898 169.893600
249 95.337997 187.111404
250 64.893600 199.721893
251 32.851200 207.414597
252 0.000000 210.000000
253 -32.851200 207.414597
254 -64.893600 199.721893
255 -95.337997 187.111404
256 -123.434898 169.893600
257 -148.492401 148.492401
258 -169.893600 123.434898
259 -187.111404 95.337997
260 -199.721893 64.893600
261 -207.414597 32.851200
262 -210.000000 0.000000
263 -207.414597 -32.851200
264 -199.721893 -64.893600
265 -187.111404 -95.337997
266 -169.893600 -123.434898
267 -148.492401 -148.492401
268 -123.434898 -169.893600
269 -95.337997 -187.111404
270 -64.893600 -199.721893
271 -32.851200 -207.414597
272 -0.000000 -210.000000
273 32.851200 -207.414597
274 64.893600 -199.721893
275 95.337997 -187.111404
276 123.434898 -169.893600
277 148.492401 -148.492401
278 169.893600 -123.434898
279 187.111404 -95.337997
280 199.721893 -64.893600
281 207.414597 -32.851200
282 240.000000 0.000000
283 237.045197 37.544300
284 228.253601 74.164101
285 213.841599 108.957703
286 194.164093 141.068497
287 169.705597 169.705597
288 141.068497 194.164093
289 108.957703 213.841599
290 74.164101 228.253601
291 37.544300 237.045197
292 0.000000 240.000000
293 -37.544300 237.045197
294 -74.164101 228.253601
295 -108.957703 213.841599
296 -141.068497 194.164093
297 -169.705597 169.705597
298 -194.164093 141.068497
299 -213.841599 108.957703
300 -228.253601 74.164101
301 -237.045197 37.544300
302 -240.000000 0.000000
303 -237.045197 -37.544300
304 -228.253601 -74.164101
305 -213.841599 -108.957703
306 -194.164093 -141.068497
307 -169.705597 -169.705597
308 -141.068497 -194.164093
309 -108.957703 -213.841599
310 -74.164101 -228.253601
311 -37.544300 -237.045197
312 -0.000000 -240.000000
313 37.544300 -237.045197
314 74.164101 -228.253601
315 108.957703 -213.841599
316 141.068497 -194.164093
317 169.705597 -169.705597
318 194.164093 -141.068497
319 213.841599 -108.957703
320 228.253601 -74.164101
321 237.045197 -37.544300
322 270.000000 0.000000
323 266.675903 42.237301
324 256.785309 83.434601
325 240.571793 122.577400
326 218.434601 158.701996
327 190.918793 190.918793
328 158.701996 218.434601
329 122.577400 240.571793
330 83.434601 256.785309
331 42.237301 266.675903
332 0.000000 270.000000
333 -42.237301 266.675903
334 -83.434601 256.785309
335 -122.577400 240.571793
336 -158.701996 218.434601
337 -190.918793 190.918793
338 -218.434601 158.701996
339 -240.571793 122.577400
340 -256.785309 83.434601
341 -266.675903 42.237301
342 -270.000000 0.000000
343 -266.675903 -42.237301
344 -256.785309 -83.434601
345 -240.571793 -122.577400
346 -218.434601 -158.701996
347 -190.918793 -190.918793
348 -158.701996 -218.434601
349 -122.577400 -240.571793
350 -83.434601 -256.785309
351 -42.237301 -266.675903
352 -0.000000 -270.000000
353 42.237301 -266.675903
354 83.434601 -256.785309
355 122.577400 -240.571793
356 158.701996 -218.434601
357 190.918793 -190.918793
358 218.434601 -158.701996
359 240.571793 -122.577400
360 256.785309 -83.434601
361 266.675903 -42.237301
362 300.000000 0.000000
363 296.306488 46.930302
364 285.316986 92.705101
365 267.302002 136.197098
366 242.705093 176.335602
367 212.132004 212.132004
368 176.335602 242.705093
369 136.197098 267.302002
370 92.705101 285.316986
371 46.930302 296.306488
372 0.000000 300.000000
373 -46.930302 296.306488
374 -92.705101 285.316986
375 -136.197098 267.302002
376 -176.335602 242.705093
377 -212.132004 212.132004
378 -242.705093 176.335602
379 -267.302002 136.197098
380 -285.316986 92.705101
381 -296.306488 46.930302
382 -300.000000 0.000000
383 -296.306488 -46.930302
384 -285.316986 -92.705101
385 -267.302002 -136.197098
386 -242.705093 -176.335602
387 -212.132004 -212.132004
388 -176.335602 -242.705093
389 -136.197098 -267.302002
390 -92.705101 -285.316986
391 -46.930302 -296.306488
392 -0.000000 -300.000000
393 46.930302 -296.306488
394 92.705101 -285.316986
395 136.197098 -267.302002
396 176.335602 -242.705093
397 212.132004 -212.132004
398 242.705093 -176.335602
399 267.302002 -136.197098
400 285.316986 -92.705101
401 296.306488 -46.930302
402 330.000000 0.000000
403 325.937195 51.623402
404 313.848694 101.975601
405 294.032196 149.816895
406 266.975586 193.969101
407 233.345200 233.345200
408 193.969101 266.975586
409 149.816895 294.032196
410 101.975601 313.848694
411 51.623402 325.937195
412 0.000000 330.000000
413 -51.623402 325.937195
414 -101.975601 313.848694
415 -149.816895 294.032196
416 -193.969101 266.975586
417 -233.345200 233.345200
418 -266.975586 193.969101
419 -294.032196 149.816895
420 -313.848694 101.975601
421 -325.937195 51.623402
422 -330.000000 0.000000
423 -325.937195 -51.623402
424 -313.848694 -101.975601
425 -294.032196 -149.816895
426 -266.975586 -193.969101
427 -233.345200 -233.345200
428 -193.969101 -266.975586
429 -149.816895 -294.032196
430 -101.975601 -313.848694
431 -51.623402 -325.937195
432 -0.000000 -330.000000
433 51.623402 -325.937195
434 101.975601 -313.848694
435 149.816895 -294.032196
436 193.969101 -266.975586
437 233.345200 -233.345200
438 266.975586 -193.969101
439 294.032196 -149.816895
440 313.848694 -101.975601
441 325.937195 -51.623402
442 360.000000 0.000000
443 355.567810 56.316399
444 342.380310 111.246101
445 320.762299 163.436600
446 291.246094 211.602707
447 254.558395 254.558395
448 211.602707 291.246094
449 163.436600 320.762299
450 111.246101 342.380310
451 56.316399 355.567810
452 0.000000 360.000000
453 -56.316399 355.567810
454 -111.246101 342.380310
455 -163.436600 320.762299
456 -211.602707 291.246094
457 -254.558395 254.558395
458 -291.246094 211.602707
459 -320.762299 163.436600
460 -342.380310 111.246101
461 -355.567810 56.316399
462 -360.000000 0.000000
463 -355.567810 -56.316399
464 -342.380310 -111.246101
465 -320.762299 -163.436600
466 -291.246094 -211.602707
467 -254.558395 -254.558395
468 -211.602707 -291.246094
469 -163.436600 -320.762299
470 -111.246101 -342.380310
471 -56.316399 -355.567810
472 -0.000000 -360.000000
473 56.316399 -355.567810
474 111.246101 -342.380310
475 163.436600 -320.762299
476 211.602707 -291.246094
477 254.558395 -254.558395
478 291.246094 -211.602707
479 320.762299 -163.436600
480 342.380310 -111.246101
481 355.567810 -56.316399
482 390.000000 0.000000
483 385.198486 61.009399
484 370.911987 120.516602
485 347.492493 177.056305
486 315.516602 229.236206
487 275.771606 275.771606
488 229.236206 315.516602
489 177.056305 347.492493
490 120.516602 370.911987
491 61.009399 385.198486
492 0.000000 390.000000
493 -61.009399 385.198486
494 -120.516602 370.911987
495 -177.056305 347.492493
496 -229.236206 315.516602
497 -275.771606 275.771606
498 -315.516602 229.236206
499 -347.492493 177.056305
500 -370.911987 120.516602
501 -385.198486 61.009399
502 -390.000000 0.000000
503 -385.198486 -61.009399
504 -370.911987 -120.516602
505 -347.492493 -177.056305
506 -315.516602 -229.236206
507 -275.771606 -275.771606
508 -229.236206 -315.516602
509 -177.056305 -347.492493
510 -120.516602 -370.911987
511 -61.009399 -385.198486
512 -0.000000 -390.000000
513 61.009399 -385.198486
514 120.516602 -370.911987
515 177.056305 -347.492493
516 229.236206 -315.516602
517 275.771606 -275.771606
518 315.516602 -229.236206
519 347.492493 -177.056305
520 370.911987 -120.516602
521 385.198486 -61.009399
522 420.000000 0.000000
523 414.829102 65.702499
524 399.443695 129.787094
525 374.222687 190.675995
526 339.787109 246.869797
527 296.984802 296.984802
528 246.869797 339.787109
529 190.675995 374.222687
530 129.787094 399.443695
531 65.702499 414.829102
532 0.000000 420.000000
533 -65.702499 414.829102
534 -129.787094 399.443695
535 -190.675995 374.222687
536 -246.869797 339.787109
537 -296.984802 296.984802
538 -339.787109 246.869797
539 -374.222687 190.675995
540 -399.443695 129.787094
541 -414.829102 65.702499
542 -420.000000 0.000000
543 -414.829102 -65.702499
544 -399.443695 -129.787094
545 -374.222687 -190.675995
546 -339.787109 -246.869797
547 -296.984802 -296.984802
548 -246.869797 -339.787109
549 -190.675995 -374.222687
550 -129.787094 -399.443695
551 -65.702499 -414.829102
552 -0.000000 -420.000000
553 65.702499 -414.829102
554 129.787094 -399.443695
555 190.675995 -374.222687
556 246.869797 -339.787109
557 296.984802 -296.984802
558 339.787109 -246.869797
559 374.222687 -190.675995
560 399.443695 -129.787094
561 414.829102 -65.702499
GVRP_SET_SECTION 
 1 522  482 -1
 2  542  502 -1
 3  532  492 -1
 4  552  512 -1
 5  7  2  3  4  5  6  8  9  10  11  12  13  14  15  16  17  18  38  39  40  41  44  45  46  47  48  49 -1
 6  527  487 -1
 7  537  497 -1
 8  547  507 -1
 9  557  517 -1
 10  264  224  263  265  303  304  305 -1
 11  274  234  235  273  275  313  314  315 -1
 12  257  217  218  256  258  297  298 -1
 13  284  243  244  283  285  323  324  325 -1
 14  290  250  289  291  329  330 -1
 15  349  309  348  350  388  389  390 -1
 16  359  319  358  360  398  399  400 -1
 17  149  107  108  109  110  147  148  150  188  189  190 -1
 18  374  334  373  375  414 -1
 19  380  339  340  379  381  420 -1
 20  464  424  465  504 -1
 21  474  434  475  514 -1
 22  524  484 -1
 23  529  489 -1
 24  535  495 -1
 25  539  499 -1
 26  549  509 -1
 27  559  519 -1
 28  201  159  160  161  162  200  202  241 -1
 29  173  133  134  172  174  213  214 -1
 30  327  287  326  328  366  367  368 -1
 31  167  126  127  128  166  168  207 -1
 32  386  346  347  385  387  425  426  427 -1
 33  392  351  352  391  393  431  432  433 -1
 34  396  356  357  395  397  435  436  437 -1
 35  140  99  100  101  138  139  141  142  179  180  181 -1
 36  441  401  440  481 -1
 37  156  115  116  117  118  154  155  157  158  195  196  197 -1
 38  416  376  456 -1
 39  418  378  458 -1
 40  403  363  443 -1
 41  405  365  406  445 -1
 42  411  370  371  410  412  451 -1
 43  267  227  266  268  306  307  308 -1
 44  271  231  270  272  310  311  312 -1
 45  342  302  341  343  382  383 -1
 46  277  236  237  276  278  316  317  318 -1
 47  260  219  220  259  261  299  300  301 -1
 48  409  369  408  449 -1
 49  468  428  467  508 -1
 50  470  430  510 -1
 51  478  438  477  518 -1
 52  545  505 -1
 53  555  515 -1
 54  321  242  281  282  320  361 -1
 55  64  19  20  21  22  23  24  25  26  27  28  59  60  61  62  63  65  66  67  68  102  103  104  105  106 -1
 56  453  413  452  493 -1
 57  461  421  501 -1
 58  332  292  331  333  372 -1
 59  295  254  255  294  296  335 -1
 60  73  29  30  31  32  33  34  35  36  37  69  70  71  72  74  75  76  77  78  111  112  113  114 -1
 61  96  54  55  56  57  58  94  95  97  98  135  136  137 -1
 62  164  124  125  163  165  203  204  205 -1
 63  170  129  130  169  171  209  210  211 -1
 64  486  446  526 -1
 65  488  448  528 -1
 66  490  450  530 -1
 67  506  466  546 -1
 68  516  476  556 -1
 69  520  480  560 -1
 70  222  182  183  221  223  262 -1
 71  185  143  144  145  146  184  186  187  225  226 -1
 72  192  151  152  153  191  193  194  232  233 -1
 73  246  206  245  247  286 -1
 74  248  208  249  288 -1
 75  494  454  534 -1
 76  500  460  540 -1
 77  503  463  543 -1
 78  511  471  551 -1
 79  513  473  553 -1
 80  523  483 -1
 81  525  485 -1
 82  531  491 -1
 83  536  496 -1
 84  538  498 -1
 85  561  521 -1
 86  82  42  43  79  80  81  83  84  85  86  119  120  121  122  123 -1
 87  91  50  51  52  53  87  88  89  90  92  93  131  132 -1
 88  176  175  177  178  215  216 -1
 89  229  228  230  269 -1
 90  239  198  199  238  240  279  280 -1
 91  252  212  251  253  293 -1
 92  337  336  338  377 -1
 93  344  345  384 -1
 94  354  353  355  394 -1
 95  407  447 -1
 96  422  423  462 -1
 97  429  469 -1
 98  439  479 -1
 99  442  402 -1
 100  444  404 -1
 101  455  415 -1
 102  457  417 -1
 103  459  419 -1
 104  472 -1
 105  533 -1
 106  541 -1
 107  544 -1
 108  548 -1
 109  550 -1
 110  554 -1
 111  558 -1
 112  362  322 -1
 113  364 -1
 DEMAND_SECTION
 1 20 
 2 20 
 3 60 
 4 60 
 5 530 
 6 60 
 7 20 
 8 60 
 9 20 
 10 170 
 11 140 
 12 90 
 13 200 
 14 80 
 15 110 
 16 170 
 17 210 
 18 70 
 19 160 
 20 100 
 21 60 
 22 60 
 23 20 
 24 60 
 25 60 
 26 20 
 27 60 
 28 140 
 29 90 
 30 170 
 31 170 
 32 140 
 33 200 
 34 180 
 35 230 
 36 60 
 37 240 
 38 90 
 39 30 
 40 90 
 41 40 
 42 140 
 43 170 
 44 170 
 45 100 
 46 140 
 47 200 
 48 60 
 49 120 
 50 30 
 51 40 
 52 20 
 53 60 
 54 80 
 55 530 
 56 60 
 57 30 
 58 130 
 59 140 
 60 430 
 61 250 
 62 180 
 63 120 
 64 30 
 65 90 
 66 30 
 67 30 
 68 90 
 69 90 
 70 100 
 71 180 
 72 190 
 73 70 
 74 100 
 75 30 
 76 90 
 77 90 
 78 90 
 79 30 
 80 60 
 81 20 
 82 60 
 83 60 
 84 20 
 85 20 
 86 310 
 87 290 
 88 140 
 89 60 
 90 170 
 91 110 
 92 60 
 93 70 
 94 60 
 95 60 
 96 50 
 97 20 
 98 60 
 99 20 
 100 60 
 101 60 
 102 20 
 103 60 
 104 30 
 105 10 
 106 10 
 107 30 
 108 30 
 109 10 
 110 10 
 111 10 
 112 20 
 113 30 
EOF
